100
128
36
36
10
11
10
29
18
46
11
13
8
12
12
28
63
37
4
29
60
41
21
25
41
44
1
15
24
12
39
32
4
15
47
29
39
39
58
14
27
29
15
29
17
17
56
55
34
30
64
53
43
35
21
48
44
48
34
31
53
15
46
24
15
14
53
24
29
38
29
63
18
16
47
18
26
28
48
50
20
21
19
28
60
43
23
3
22
36
31
19
31
46
40
41
54
2
26
46
46
1